\* The APS Problem *\
Maximize
OBJ: __dummy
Subject To
_C1: compDate_line1_KCE180816 + release_line1_KCE180816 <= 0
_C10: release_line1_KCE181058 >= 2
_C100: release_line2_KCE190180 >= 0
_C101: compDate_line3_KCE190180 + release_line3_KCE190180 <= 0
_C102: release_line3_KCE190180 >= 0
_C103: nan compDate_line1_KCE190180 + nan compDate_line2_KCE190180
 + nan compDate_line3_KCE190180 <= nan
_C104: nan compDate_line1_KCE190180 + nan compDate_line2_KCE190180
 + nan compDate_line3_KCE190180 >= nan
_C105: compDate_line1_KCE190181 + release_line1_KCE190181 <= 6
_C106: release_line1_KCE190181 >= 6
_C107: compDate_line2_KCE190181 + release_line2_KCE190181 <= 6
_C108: release_line2_KCE190181 >= 6
_C109: compDate_line3_KCE190181 + release_line3_KCE190181 <= 6
_C11: compDate_line2_KCE181058 + release_line2_KCE181058 <= 2
_C110: release_line3_KCE190181 >= 6
_C111: nan compDate_line1_KCE190181 + nan compDate_line2_KCE190181
 + nan compDate_line3_KCE190181 <= nan
_C112: nan compDate_line1_KCE190181 + nan compDate_line2_KCE190181
 + nan compDate_line3_KCE190181 >= nan
_C113: compDate_line1_KCE190198 + release_line1_KCE190198 <= 16
_C114: release_line1_KCE190198 >= 16
_C115: compDate_line2_KCE190198 + release_line2_KCE190198 <= 16
_C116: release_line2_KCE190198 >= 16
_C117: compDate_line3_KCE190198 + release_line3_KCE190198 <= 16
_C118: release_line3_KCE190198 >= 16
_C119: nan compDate_line1_KCE190198 + nan compDate_line2_KCE190198
 + nan compDate_line3_KCE190198 <= nan
_C12: release_line2_KCE181058 >= 2
_C120: nan compDate_line1_KCE190198 + nan compDate_line2_KCE190198
 + nan compDate_line3_KCE190198 >= nan
_C121: compDate_line1_KCE190199 + release_line1_KCE190199 <= 22
_C122: release_line1_KCE190199 >= 22
_C123: compDate_line2_KCE190199 + release_line2_KCE190199 <= 22
_C124: release_line2_KCE190199 >= 22
_C125: compDate_line3_KCE190199 + release_line3_KCE190199 <= 22
_C126: release_line3_KCE190199 >= 22
_C127: nan compDate_line1_KCE190199 + nan compDate_line2_KCE190199
 + nan compDate_line3_KCE190199 <= nan
_C128: nan compDate_line1_KCE190199 + nan compDate_line2_KCE190199
 + nan compDate_line3_KCE190199 >= nan
_C129: compDate_line1_KCE190200 + release_line1_KCE190200 <= 36
_C13: compDate_line3_KCE181058 + release_line3_KCE181058 <= 2
_C130: release_line1_KCE190200 >= 36
_C131: compDate_line2_KCE190200 + release_line2_KCE190200 <= 36
_C132: release_line2_KCE190200 >= 36
_C133: compDate_line3_KCE190200 + release_line3_KCE190200 <= 36
_C134: release_line3_KCE190200 >= 36
_C135: nan compDate_line1_KCE190200 + nan compDate_line2_KCE190200
 + nan compDate_line3_KCE190200 <= nan
_C136: nan compDate_line1_KCE190200 + nan compDate_line2_KCE190200
 + nan compDate_line3_KCE190200 >= nan
_C137: compDate_line1_KCE190201 + release_line1_KCE190201 <= 43
_C138: release_line1_KCE190201 >= 43
_C139: compDate_line2_KCE190201 + release_line2_KCE190201 <= 43
_C14: release_line3_KCE181058 >= 2
_C140: release_line2_KCE190201 >= 43
_C141: compDate_line3_KCE190201 + release_line3_KCE190201 <= 43
_C142: release_line3_KCE190201 >= 43
_C143: nan compDate_line1_KCE190201 + nan compDate_line2_KCE190201
 + nan compDate_line3_KCE190201 <= nan
_C144: nan compDate_line1_KCE190201 + nan compDate_line2_KCE190201
 + nan compDate_line3_KCE190201 >= nan
_C145: compDate_line1_KCE190202 + release_line1_KCE190202 <= 49
_C146: release_line1_KCE190202 >= 49
_C147: compDate_line2_KCE190202 + release_line2_KCE190202 <= 49
_C148: release_line2_KCE190202 >= 49
_C149: compDate_line3_KCE190202 + release_line3_KCE190202 <= 49
_C15: nan compDate_line1_KCE181058 + nan compDate_line2_KCE181058
 + nan compDate_line3_KCE181058 <= nan
_C150: release_line3_KCE190202 >= 49
_C151: nan compDate_line1_KCE190202 + nan compDate_line2_KCE190202
 + nan compDate_line3_KCE190202 <= nan
_C152: nan compDate_line1_KCE190202 + nan compDate_line2_KCE190202
 + nan compDate_line3_KCE190202 >= nan
_C153: compDate_line1_KCE190203 + release_line1_KCE190203 <= 57
_C154: release_line1_KCE190203 >= 57
_C155: compDate_line2_KCE190203 + release_line2_KCE190203 <= 57
_C156: release_line2_KCE190203 >= 57
_C157: compDate_line3_KCE190203 + release_line3_KCE190203 <= 57
_C158: release_line3_KCE190203 >= 57
_C159: nan compDate_line1_KCE190203 + nan compDate_line2_KCE190203
 + nan compDate_line3_KCE190203 <= nan
_C16: nan compDate_line1_KCE181058 + nan compDate_line2_KCE181058
 + nan compDate_line3_KCE181058 >= nan
_C160: nan compDate_line1_KCE190203 + nan compDate_line2_KCE190203
 + nan compDate_line3_KCE190203 >= nan
_C161: compDate_line1_KCE190204 + release_line1_KCE190204 <= 64
_C162: release_line1_KCE190204 >= 64
_C163: compDate_line2_KCE190204 + release_line2_KCE190204 <= 64
_C164: release_line2_KCE190204 >= 64
_C165: compDate_line3_KCE190204 + release_line3_KCE190204 <= 64
_C166: release_line3_KCE190204 >= 64
_C167: nan compDate_line1_KCE190204 + nan compDate_line2_KCE190204
 + nan compDate_line3_KCE190204 <= nan
_C168: nan compDate_line1_KCE190204 + nan compDate_line2_KCE190204
 + nan compDate_line3_KCE190204 >= nan
_C169: compDate_line1_KCE190205 + release_line1_KCE190205 <= 13
_C17: compDate_line1_KCE180863 + release_line1_KCE180863 <= 12
_C170: release_line1_KCE190205 >= 13
_C171: compDate_line2_KCE190205 + release_line2_KCE190205 <= 13
_C172: release_line2_KCE190205 >= 13
_C173: compDate_line3_KCE190205 + release_line3_KCE190205 <= 13
_C174: release_line3_KCE190205 >= 13
_C175: nan compDate_line1_KCE190205 + nan compDate_line2_KCE190205
 + nan compDate_line3_KCE190205 <= nan
_C176: nan compDate_line1_KCE190205 + nan compDate_line2_KCE190205
 + nan compDate_line3_KCE190205 >= nan
_C177: compDate_line1_KCE190206 + release_line1_KCE190206 <= 19
_C178: release_line1_KCE190206 >= 19
_C179: compDate_line2_KCE190206 + release_line2_KCE190206 <= 19
_C18: release_line1_KCE180863 >= 12
_C180: release_line2_KCE190206 >= 19
_C181: compDate_line3_KCE190206 + release_line3_KCE190206 <= 19
_C182: release_line3_KCE190206 >= 19
_C183: nan compDate_line1_KCE190206 + nan compDate_line2_KCE190206
 + nan compDate_line3_KCE190206 <= nan
_C184: nan compDate_line1_KCE190206 + nan compDate_line2_KCE190206
 + nan compDate_line3_KCE190206 >= nan
_C185: compDate_line1_KCE190207 + release_line1_KCE190207 <= 26
_C186: release_line1_KCE190207 >= 26
_C187: compDate_line2_KCE190207 + release_line2_KCE190207 <= 26
_C188: release_line2_KCE190207 >= 26
_C189: compDate_line3_KCE190207 + release_line3_KCE190207 <= 26
_C19: compDate_line2_KCE180863 + release_line2_KCE180863 <= 12
_C190: release_line3_KCE190207 >= 26
_C191: nan compDate_line1_KCE190207 + nan compDate_line2_KCE190207
 + nan compDate_line3_KCE190207 <= nan
_C192: nan compDate_line1_KCE190207 + nan compDate_line2_KCE190207
 + nan compDate_line3_KCE190207 >= nan
_C193: compDate_line1_KCE190208 + release_line1_KCE190208 <= 33
_C194: release_line1_KCE190208 >= 33
_C195: compDate_line2_KCE190208 + release_line2_KCE190208 <= 33
_C196: release_line2_KCE190208 >= 33
_C197: compDate_line3_KCE190208 + release_line3_KCE190208 <= 33
_C198: release_line3_KCE190208 >= 33
_C199: nan compDate_line1_KCE190208 + nan compDate_line2_KCE190208
 + nan compDate_line3_KCE190208 <= nan
_C2: release_line1_KCE180816 >= 0
_C20: release_line2_KCE180863 >= 12
_C200: nan compDate_line1_KCE190208 + nan compDate_line2_KCE190208
 + nan compDate_line3_KCE190208 >= nan
_C201: compDate_line1_KCE190209 + release_line1_KCE190209 <= 9
_C202: release_line1_KCE190209 >= 9
_C203: compDate_line2_KCE190209 + release_line2_KCE190209 <= 9
_C204: release_line2_KCE190209 >= 9
_C205: compDate_line3_KCE190209 + release_line3_KCE190209 <= 9
_C206: release_line3_KCE190209 >= 9
_C207: nan compDate_line1_KCE190209 + nan compDate_line2_KCE190209
 + nan compDate_line3_KCE190209 <= nan
_C208: nan compDate_line1_KCE190209 + nan compDate_line2_KCE190209
 + nan compDate_line3_KCE190209 >= nan
_C209: compDate_line1_KCE190210 + release_line1_KCE190210 <= 22
_C21: compDate_line3_KCE180863 + release_line3_KCE180863 <= 12
_C210: release_line1_KCE190210 >= 22
_C211: compDate_line2_KCE190210 + release_line2_KCE190210 <= 22
_C212: release_line2_KCE190210 >= 22
_C213: compDate_line3_KCE190210 + release_line3_KCE190210 <= 22
_C214: release_line3_KCE190210 >= 22
_C215: nan compDate_line1_KCE190210 + nan compDate_line2_KCE190210
 + nan compDate_line3_KCE190210 <= nan
_C216: nan compDate_line1_KCE190210 + nan compDate_line2_KCE190210
 + nan compDate_line3_KCE190210 >= nan
_C217: compDate_line1_KCE190211 + release_line1_KCE190211 <= 29
_C218: release_line1_KCE190211 >= 29
_C219: compDate_line2_KCE190211 + release_line2_KCE190211 <= 29
_C22: release_line3_KCE180863 >= 12
_C220: release_line2_KCE190211 >= 29
_C221: compDate_line3_KCE190211 + release_line3_KCE190211 <= 29
_C222: release_line3_KCE190211 >= 29
_C223: nan compDate_line1_KCE190211 + nan compDate_line2_KCE190211
 + nan compDate_line3_KCE190211 <= nan
_C224: nan compDate_line1_KCE190211 + nan compDate_line2_KCE190211
 + nan compDate_line3_KCE190211 >= nan
_C225: compDate_line1_KCE190212 + release_line1_KCE190212 <= 43
_C226: release_line1_KCE190212 >= 43
_C227: compDate_line2_KCE190212 + release_line2_KCE190212 <= 43
_C228: release_line2_KCE190212 >= 43
_C229: compDate_line3_KCE190212 + release_line3_KCE190212 <= 43
_C23: nan compDate_line1_KCE180863 + nan compDate_line2_KCE180863
 + nan compDate_line3_KCE180863 <= nan
_C230: release_line3_KCE190212 >= 43
_C231: nan compDate_line1_KCE190212 + nan compDate_line2_KCE190212
 + nan compDate_line3_KCE190212 <= nan
_C232: nan compDate_line1_KCE190212 + nan compDate_line2_KCE190212
 + nan compDate_line3_KCE190212 >= nan
_C233: compDate_line1_KCE190213 + release_line1_KCE190213 <= 50
_C234: release_line1_KCE190213 >= 50
_C235: compDate_line2_KCE190213 + release_line2_KCE190213 <= 50
_C236: release_line2_KCE190213 >= 50
_C237: compDate_line3_KCE190213 + release_line3_KCE190213 <= 50
_C238: release_line3_KCE190213 >= 50
_C239: nan compDate_line1_KCE190213 + nan compDate_line2_KCE190213
 + nan compDate_line3_KCE190213 <= nan
_C24: nan compDate_line1_KCE180863 + nan compDate_line2_KCE180863
 + nan compDate_line3_KCE180863 >= nan
_C240: nan compDate_line1_KCE190213 + nan compDate_line2_KCE190213
 + nan compDate_line3_KCE190213 >= nan
_C241: compDate_line1_KCE190214 + release_line1_KCE190214 <= 58
_C242: release_line1_KCE190214 >= 58
_C243: compDate_line2_KCE190214 + release_line2_KCE190214 <= 58
_C244: release_line2_KCE190214 >= 58
_C245: compDate_line3_KCE190214 + release_line3_KCE190214 <= 58
_C246: release_line3_KCE190214 >= 58
_C247: nan compDate_line1_KCE190214 + nan compDate_line2_KCE190214
 + nan compDate_line3_KCE190214 <= nan
_C248: nan compDate_line1_KCE190214 + nan compDate_line2_KCE190214
 + nan compDate_line3_KCE190214 >= nan
_C249: compDate_line1_KCE190215 + release_line1_KCE190215 <= 69
_C25: compDate_line1_KCE180791 + release_line1_KCE180791 <= 13
_C250: release_line1_KCE190215 >= 69
_C251: compDate_line2_KCE190215 + release_line2_KCE190215 <= 69
_C252: release_line2_KCE190215 >= 69
_C253: compDate_line3_KCE190215 + release_line3_KCE190215 <= 69
_C254: release_line3_KCE190215 >= 69
_C255: nan compDate_line1_KCE190215 + nan compDate_line2_KCE190215
 + nan compDate_line3_KCE190215 <= nan
_C256: nan compDate_line1_KCE190215 + nan compDate_line2_KCE190215
 + nan compDate_line3_KCE190215 >= nan
_C257: compDate_line1_KCE190216 + release_line1_KCE190216 <= 13
_C258: release_line1_KCE190216 >= 13
_C259: compDate_line2_KCE190216 + release_line2_KCE190216 <= 13
_C26: release_line1_KCE180791 >= 13
_C260: release_line2_KCE190216 >= 13
_C261: compDate_line3_KCE190216 + release_line3_KCE190216 <= 13
_C262: release_line3_KCE190216 >= 13
_C263: nan compDate_line1_KCE190216 + nan compDate_line2_KCE190216
 + nan compDate_line3_KCE190216 <= nan
_C264: nan compDate_line1_KCE190216 + nan compDate_line2_KCE190216
 + nan compDate_line3_KCE190216 >= nan
_C265: compDate_line1_KCE190217 + release_line1_KCE190217 <= 20
_C266: release_line1_KCE190217 >= 20
_C267: compDate_line2_KCE190217 + release_line2_KCE190217 <= 20
_C268: release_line2_KCE190217 >= 20
_C269: compDate_line3_KCE190217 + release_line3_KCE190217 <= 20
_C27: compDate_line2_KCE180791 + release_line2_KCE180791 <= 13
_C270: release_line3_KCE190217 >= 20
_C271: nan compDate_line1_KCE190217 + nan compDate_line2_KCE190217
 + nan compDate_line3_KCE190217 <= nan
_C272: nan compDate_line1_KCE190217 + nan compDate_line2_KCE190217
 + nan compDate_line3_KCE190217 >= nan
_C273: compDate_line1_KCE190218 + release_line1_KCE190218 <= 27
_C274: release_line1_KCE190218 >= 27
_C275: compDate_line2_KCE190218 + release_line2_KCE190218 <= 27
_C276: release_line2_KCE190218 >= 27
_C277: compDate_line3_KCE190218 + release_line3_KCE190218 <= 27
_C278: release_line3_KCE190218 >= 27
_C279: nan compDate_line1_KCE190218 + nan compDate_line2_KCE190218
 + nan compDate_line3_KCE190218 <= nan
_C28: release_line2_KCE180791 >= 13
_C280: nan compDate_line1_KCE190218 + nan compDate_line2_KCE190218
 + nan compDate_line3_KCE190218 >= nan
_C281: compDate_line1_KCE190219 + release_line1_KCE190219 <= 34
_C282: release_line1_KCE190219 >= 34
_C283: compDate_line2_KCE190219 + release_line2_KCE190219 <= 34
_C284: release_line2_KCE190219 >= 34
_C285: compDate_line3_KCE190219 + release_line3_KCE190219 <= 34
_C286: release_line3_KCE190219 >= 34
_C287: nan compDate_line1_KCE190219 + nan compDate_line2_KCE190219
 + nan compDate_line3_KCE190219 <= nan
_C288: nan compDate_line1_KCE190219 + nan compDate_line2_KCE190219
 + nan compDate_line3_KCE190219 >= nan
_C289: compDate_line1_KCE190220 + release_line1_KCE190220 <= 41
_C29: compDate_line3_KCE180791 + release_line3_KCE180791 <= 13
_C290: release_line1_KCE190220 >= 41
_C291: compDate_line2_KCE190220 + release_line2_KCE190220 <= 41
_C292: release_line2_KCE190220 >= 41
_C293: compDate_line3_KCE190220 + release_line3_KCE190220 <= 41
_C294: release_line3_KCE190220 >= 41
_C295: nan compDate_line1_KCE190220 + nan compDate_line2_KCE190220
 + nan compDate_line3_KCE190220 <= nan
_C296: nan compDate_line1_KCE190220 + nan compDate_line2_KCE190220
 + nan compDate_line3_KCE190220 >= nan
_C297: compDate_line1_KCE190221 + release_line1_KCE190221 <= 48
_C298: release_line1_KCE190221 >= 48
_C299: compDate_line2_KCE190221 + release_line2_KCE190221 <= 48
_C3: compDate_line2_KCE180816 + release_line2_KCE180816 <= 0
_C30: release_line3_KCE180791 >= 13
_C300: release_line2_KCE190221 >= 48
_C301: compDate_line3_KCE190221 + release_line3_KCE190221 <= 48
_C302: release_line3_KCE190221 >= 48
_C303: nan compDate_line1_KCE190221 + nan compDate_line2_KCE190221
 + nan compDate_line3_KCE190221 <= nan
_C304: nan compDate_line1_KCE190221 + nan compDate_line2_KCE190221
 + nan compDate_line3_KCE190221 >= nan
_C305: compDate_line1_KCE190222 + release_line1_KCE190222 <= 59
_C306: release_line1_KCE190222 >= 59
_C307: compDate_line2_KCE190222 + release_line2_KCE190222 <= 59
_C308: release_line2_KCE190222 >= 59
_C309: compDate_line3_KCE190222 + release_line3_KCE190222 <= 59
_C31: nan compDate_line1_KCE180791 + nan compDate_line2_KCE180791
 + nan compDate_line3_KCE180791 <= nan
_C310: release_line3_KCE190222 >= 59
_C311: nan compDate_line1_KCE190222 + nan compDate_line2_KCE190222
 + nan compDate_line3_KCE190222 <= nan
_C312: nan compDate_line1_KCE190222 + nan compDate_line2_KCE190222
 + nan compDate_line3_KCE190222 >= nan
_C313: compDate_line1_KCE190223 + release_line1_KCE190223 <= 66
_C314: release_line1_KCE190223 >= 66
_C315: compDate_line2_KCE190223 + release_line2_KCE190223 <= 66
_C316: release_line2_KCE190223 >= 66
_C317: compDate_line3_KCE190223 + release_line3_KCE190223 <= 66
_C318: release_line3_KCE190223 >= 66
_C319: nan compDate_line1_KCE190223 + nan compDate_line2_KCE190223
 + nan compDate_line3_KCE190223 <= nan
_C32: nan compDate_line1_KCE180791 + nan compDate_line2_KCE180791
 + nan compDate_line3_KCE180791 >= nan
_C320: nan compDate_line1_KCE190223 + nan compDate_line2_KCE190223
 + nan compDate_line3_KCE190223 >= nan
_C321: compDate_line1_KCE190224 + release_line1_KCE190224 <= 73
_C322: release_line1_KCE190224 >= 73
_C323: compDate_line2_KCE190224 + release_line2_KCE190224 <= 73
_C324: release_line2_KCE190224 >= 73
_C325: compDate_line3_KCE190224 + release_line3_KCE190224 <= 73
_C326: release_line3_KCE190224 >= 73
_C327: nan compDate_line1_KCE190224 + nan compDate_line2_KCE190224
 + nan compDate_line3_KCE190224 <= nan
_C328: nan compDate_line1_KCE190224 + nan compDate_line2_KCE190224
 + nan compDate_line3_KCE190224 >= nan
_C329: compDate_line1_KCE190225 + release_line1_KCE190225 <= 80
_C33: compDate_line1_KCE181094 + release_line1_KCE181094 <= 0
_C330: release_line1_KCE190225 >= 80
_C331: compDate_line2_KCE190225 + release_line2_KCE190225 <= 80
_C332: release_line2_KCE190225 >= 80
_C333: compDate_line3_KCE190225 + release_line3_KCE190225 <= 80
_C334: release_line3_KCE190225 >= 80
_C335: nan compDate_line1_KCE190225 + nan compDate_line2_KCE190225
 + nan compDate_line3_KCE190225 <= nan
_C336: nan compDate_line1_KCE190225 + nan compDate_line2_KCE190225
 + nan compDate_line3_KCE190225 >= nan
_C337: compDate_line1_KCE190226 + release_line1_KCE190226 <= 89
_C338: release_line1_KCE190226 >= 89
_C339: compDate_line2_KCE190226 + release_line2_KCE190226 <= 89
_C34: release_line1_KCE181094 >= 0
_C340: release_line2_KCE190226 >= 89
_C341: compDate_line3_KCE190226 + release_line3_KCE190226 <= 89
_C342: release_line3_KCE190226 >= 89
_C343: 317.073170732 compDate_line1_KCE190226 + nan compDate_line2_KCE190226
 + nan compDate_line3_KCE190226 <= nan
_C344: 634.146341463 compDate_line1_KCE190226 + nan compDate_line2_KCE190226
 + nan compDate_line3_KCE190226 >= nan
_C345: compDate_line1_KCE190227 + release_line1_KCE190227 <= 96
_C346: release_line1_KCE190227 >= 96
_C347: compDate_line2_KCE190227 + release_line2_KCE190227 <= 96
_C348: release_line2_KCE190227 >= 96
_C349: compDate_line3_KCE190227 + release_line3_KCE190227 <= 96
_C35: compDate_line2_KCE181094 + release_line2_KCE181094 <= 0
_C350: release_line3_KCE190227 >= 96
_C351: nan compDate_line1_KCE190227 + nan compDate_line2_KCE190227
 + nan compDate_line3_KCE190227 <= nan
_C352: nan compDate_line1_KCE190227 + nan compDate_line2_KCE190227
 + nan compDate_line3_KCE190227 >= nan
_C353: compDate_line1_KCE190228 + release_line1_KCE190228 <= 103
_C354: release_line1_KCE190228 >= 103
_C355: compDate_line2_KCE190228 + release_line2_KCE190228 <= 103
_C356: release_line2_KCE190228 >= 103
_C357: compDate_line3_KCE190228 + release_line3_KCE190228 <= 103
_C358: release_line3_KCE190228 >= 103
_C359: nan compDate_line1_KCE190228 + nan compDate_line2_KCE190228
 + nan compDate_line3_KCE190228 <= nan
_C36: release_line2_KCE181094 >= 0
_C360: nan compDate_line1_KCE190228 + nan compDate_line2_KCE190228
 + nan compDate_line3_KCE190228 >= nan
_C361: compDate_line1_KCE190229 + release_line1_KCE190229 <= 27
_C362: release_line1_KCE190229 >= 27
_C363: compDate_line2_KCE190229 + release_line2_KCE190229 <= 27
_C364: release_line2_KCE190229 >= 27
_C365: compDate_line3_KCE190229 + release_line3_KCE190229 <= 27
_C366: release_line3_KCE190229 >= 27
_C367: nan compDate_line1_KCE190229 + nan compDate_line2_KCE190229
 + nan compDate_line3_KCE190229 <= nan
_C368: nan compDate_line1_KCE190229 + nan compDate_line2_KCE190229
 + nan compDate_line3_KCE190229 >= nan
_C369: compDate_line1_KCE190230 + release_line1_KCE190230 <= 34
_C37: compDate_line3_KCE181094 + release_line3_KCE181094 <= 0
_C370: release_line1_KCE190230 >= 34
_C371: compDate_line2_KCE190230 + release_line2_KCE190230 <= 34
_C372: release_line2_KCE190230 >= 34
_C373: compDate_line3_KCE190230 + release_line3_KCE190230 <= 34
_C374: release_line3_KCE190230 >= 34
_C375: nan compDate_line1_KCE190230 + nan compDate_line2_KCE190230
 + nan compDate_line3_KCE190230 <= nan
_C376: nan compDate_line1_KCE190230 + nan compDate_line2_KCE190230
 + nan compDate_line3_KCE190230 >= nan
_C377: compDate_line1_KCE190231 + release_line1_KCE190231 <= 42
_C378: release_line1_KCE190231 >= 42
_C379: compDate_line2_KCE190231 + release_line2_KCE190231 <= 42
_C38: release_line3_KCE181094 >= 0
_C380: release_line2_KCE190231 >= 42
_C381: compDate_line3_KCE190231 + release_line3_KCE190231 <= 42
_C382: release_line3_KCE190231 >= 42
_C383: nan compDate_line1_KCE190231 + nan compDate_line2_KCE190231
 + nan compDate_line3_KCE190231 <= nan
_C384: nan compDate_line1_KCE190231 + nan compDate_line2_KCE190231
 + nan compDate_line3_KCE190231 >= nan
_C385: compDate_line1_KCE190232 + release_line1_KCE190232 <= 49
_C386: release_line1_KCE190232 >= 49
_C387: compDate_line2_KCE190232 + release_line2_KCE190232 <= 49
_C388: release_line2_KCE190232 >= 49
_C389: compDate_line3_KCE190232 + release_line3_KCE190232 <= 49
_C39: nan compDate_line1_KCE181094 + nan compDate_line2_KCE181094
 + nan compDate_line3_KCE181094 <= nan
_C390: release_line3_KCE190232 >= 49
_C391: nan compDate_line1_KCE190232 + nan compDate_line2_KCE190232
 + nan compDate_line3_KCE190232 <= nan
_C392: nan compDate_line1_KCE190232 + nan compDate_line2_KCE190232
 + nan compDate_line3_KCE190232 >= nan
_C393: compDate_line1_KCE190233 + release_line1_KCE190233 <= 57
_C394: release_line1_KCE190233 >= 57
_C395: compDate_line2_KCE190233 + release_line2_KCE190233 <= 57
_C396: release_line2_KCE190233 >= 57
_C397: compDate_line3_KCE190233 + release_line3_KCE190233 <= 57
_C398: release_line3_KCE190233 >= 57
_C399: nan compDate_line1_KCE190233 + nan compDate_line2_KCE190233
 + nan compDate_line3_KCE190233 <= nan
_C4: release_line2_KCE180816 >= 0
_C40: nan compDate_line1_KCE181094 + nan compDate_line2_KCE181094
 + nan compDate_line3_KCE181094 >= nan
_C400: nan compDate_line1_KCE190233 + nan compDate_line2_KCE190233
 + nan compDate_line3_KCE190233 >= nan
_C401: compDate_line1_KCE190234 + release_line1_KCE190234 <= 64
_C402: release_line1_KCE190234 >= 64
_C403: compDate_line2_KCE190234 + release_line2_KCE190234 <= 64
_C404: release_line2_KCE190234 >= 64
_C405: compDate_line3_KCE190234 + release_line3_KCE190234 <= 64
_C406: release_line3_KCE190234 >= 64
_C407: nan compDate_line1_KCE190234 + nan compDate_line2_KCE190234
 + nan compDate_line3_KCE190234 <= nan
_C408: nan compDate_line1_KCE190234 + nan compDate_line2_KCE190234
 + nan compDate_line3_KCE190234 >= nan
_C409: compDate_line1_KCE190235 + release_line1_KCE190235 <= 71
_C41: compDate_line1_KCE180548 + release_line1_KCE180548 <= 9
_C410: release_line1_KCE190235 >= 71
_C411: compDate_line2_KCE190235 + release_line2_KCE190235 <= 71
_C412: release_line2_KCE190235 >= 71
_C413: compDate_line3_KCE190235 + release_line3_KCE190235 <= 71
_C414: release_line3_KCE190235 >= 71
_C415: nan compDate_line1_KCE190235 + nan compDate_line2_KCE190235
 + nan compDate_line3_KCE190235 <= nan
_C416: nan compDate_line1_KCE190235 + nan compDate_line2_KCE190235
 + nan compDate_line3_KCE190235 >= nan
_C417: compDate_line1_KCE190236 + release_line1_KCE190236 <= 78
_C418: release_line1_KCE190236 >= 78
_C419: compDate_line2_KCE190236 + release_line2_KCE190236 <= 78
_C42: release_line1_KCE180548 >= 9
_C420: release_line2_KCE190236 >= 78
_C421: compDate_line3_KCE190236 + release_line3_KCE190236 <= 78
_C422: release_line3_KCE190236 >= 78
_C423: nan compDate_line1_KCE190236 + nan compDate_line2_KCE190236
 + nan compDate_line3_KCE190236 <= nan
_C424: nan compDate_line1_KCE190236 + nan compDate_line2_KCE190236
 + nan compDate_line3_KCE190236 >= nan
_C425: compDate_line1_KCE180548 + compDate_line1_KCE180791
 + compDate_line1_KCE180816 + compDate_line1_KCE180863
 + compDate_line1_KCE181058 + compDate_line1_KCE181087
 + compDate_line1_KCE181094 + compDate_line1_KCE181138
 + compDate_line1_KCE190051 + compDate_line1_KCE190116
 + compDate_line1_KCE190157 + compDate_line1_KCE190180
 + compDate_line1_KCE190181 + compDate_line1_KCE190182
 + compDate_line1_KCE190198 + compDate_line1_KCE190199
 + compDate_line1_KCE190200 + compDate_line1_KCE190201
 + compDate_line1_KCE190202 + compDate_line1_KCE190203
 + compDate_line1_KCE190204 + compDate_line1_KCE190205
 + compDate_line1_KCE190206 + compDate_line1_KCE190207
 + compDate_line1_KCE190208 + compDate_line1_KCE190209
 + compDate_line1_KCE190210 + compDate_line1_KCE190211
 + compDate_line1_KCE190212 + compDate_line1_KCE190213
 + compDate_line1_KCE190214 + compDate_line1_KCE190215
 + compDate_line1_KCE190216 + compDate_line1_KCE190217
 + compDate_line1_KCE190218 + compDate_line1_KCE190219
 + compDate_line1_KCE190220 + compDate_line1_KCE190221
 + compDate_line1_KCE190222 + compDate_line1_KCE190223
 + compDate_line1_KCE190224 + compDate_line1_KCE190225
 + compDate_line1_KCE190226 + compDate_line1_KCE190227
 + compDate_line1_KCE190228 + compDate_line1_KCE190229
 + compDate_line1_KCE190230 + compDate_line1_KCE190231
 + compDate_line1_KCE190232 + compDate_line1_KCE190233
 + compDate_line1_KCE190234 + compDate_line1_KCE190235
 + compDate_line1_KCE190236 >= 6
_C426: compDate_line2_KCE180548 + compDate_line2_KCE180791
 + compDate_line2_KCE180816 + compDate_line2_KCE180863
 + compDate_line2_KCE181058 + compDate_line2_KCE181087
 + compDate_line2_KCE181094 + compDate_line2_KCE181138
 + compDate_line2_KCE190051 + compDate_line2_KCE190116
 + compDate_line2_KCE190157 + compDate_line2_KCE190180
 + compDate_line2_KCE190181 + compDate_line2_KCE190182
 + compDate_line2_KCE190198 + compDate_line2_KCE190199
 + compDate_line2_KCE190200 + compDate_line2_KCE190201
 + compDate_line2_KCE190202 + compDate_line2_KCE190203
 + compDate_line2_KCE190204 + compDate_line2_KCE190205
 + compDate_line2_KCE190206 + compDate_line2_KCE190207
 + compDate_line2_KCE190208 + compDate_line2_KCE190209
 + compDate_line2_KCE190210 + compDate_line2_KCE190211
 + compDate_line2_KCE190212 + compDate_line2_KCE190213
 + compDate_line2_KCE190214 + compDate_line2_KCE190215
 + compDate_line2_KCE190216 + compDate_line2_KCE190217
 + compDate_line2_KCE190218 + compDate_line2_KCE190219
 + compDate_line2_KCE190220 + compDate_line2_KCE190221
 + compDate_line2_KCE190222 + compDate_line2_KCE190223
 + compDate_line2_KCE190224 + compDate_line2_KCE190225
 + compDate_line2_KCE190226 + compDate_line2_KCE190227
 + compDate_line2_KCE190228 + compDate_line2_KCE190229
 + compDate_line2_KCE190230 + compDate_line2_KCE190231
 + compDate_line2_KCE190232 + compDate_line2_KCE190233
 + compDate_line2_KCE190234 + compDate_line2_KCE190235
 + compDate_line2_KCE190236 >= 6
_C427: compDate_line3_KCE180548 + compDate_line3_KCE180791
 + compDate_line3_KCE180816 + compDate_line3_KCE180863
 + compDate_line3_KCE181058 + compDate_line3_KCE181087
 + compDate_line3_KCE181094 + compDate_line3_KCE181138
 + compDate_line3_KCE190051 + compDate_line3_KCE190116
 + compDate_line3_KCE190157 + compDate_line3_KCE190180
 + compDate_line3_KCE190181 + compDate_line3_KCE190182
 + compDate_line3_KCE190198 + compDate_line3_KCE190199
 + compDate_line3_KCE190200 + compDate_line3_KCE190201
 + compDate_line3_KCE190202 + compDate_line3_KCE190203
 + compDate_line3_KCE190204 + compDate_line3_KCE190205
 + compDate_line3_KCE190206 + compDate_line3_KCE190207
 + compDate_line3_KCE190208 + compDate_line3_KCE190209
 + compDate_line3_KCE190210 + compDate_line3_KCE190211
 + compDate_line3_KCE190212 + compDate_line3_KCE190213
 + compDate_line3_KCE190214 + compDate_line3_KCE190215
 + compDate_line3_KCE190216 + compDate_line3_KCE190217
 + compDate_line3_KCE190218 + compDate_line3_KCE190219
 + compDate_line3_KCE190220 + compDate_line3_KCE190221
 + compDate_line3_KCE190222 + compDate_line3_KCE190223
 + compDate_line3_KCE190224 + compDate_line3_KCE190225
 + compDate_line3_KCE190226 + compDate_line3_KCE190227
 + compDate_line3_KCE190228 + compDate_line3_KCE190229
 + compDate_line3_KCE190230 + compDate_line3_KCE190231
 + compDate_line3_KCE190232 + compDate_line3_KCE190233
 + compDate_line3_KCE190234 + compDate_line3_KCE190235
 + compDate_line3_KCE190236 >= 6
_C43: compDate_line2_KCE180548 + release_line2_KCE180548 <= 9
_C44: release_line2_KCE180548 >= 9
_C45: compDate_line3_KCE180548 + release_line3_KCE180548 <= 9
_C46: release_line3_KCE180548 >= 9
_C47: nan compDate_line1_KCE180548 + nan compDate_line2_KCE180548
 + nan compDate_line3_KCE180548 <= nan
_C48: nan compDate_line1_KCE180548 + nan compDate_line2_KCE180548
 + nan compDate_line3_KCE180548 >= nan
_C49: compDate_line1_KCE181138 + release_line1_KCE181138 <= 1
_C5: compDate_line3_KCE180816 + release_line3_KCE180816 <= 0
_C50: release_line1_KCE181138 >= 1
_C51: compDate_line2_KCE181138 + release_line2_KCE181138 <= 1
_C52: release_line2_KCE181138 >= 1
_C53: compDate_line3_KCE181138 + release_line3_KCE181138 <= 1
_C54: release_line3_KCE181138 >= 1
_C55: nan compDate_line1_KCE181138 + nan compDate_line2_KCE181138
 + nan compDate_line3_KCE181138 <= nan
_C56: nan compDate_line1_KCE181138 + nan compDate_line2_KCE181138
 + nan compDate_line3_KCE181138 >= nan
_C57: compDate_line1_KCE190051 + release_line1_KCE190051 <= 16
_C58: release_line1_KCE190051 >= 16
_C59: compDate_line2_KCE190051 + release_line2_KCE190051 <= 16
_C6: release_line3_KCE180816 >= 0
_C60: release_line2_KCE190051 >= 16
_C61: compDate_line3_KCE190051 + release_line3_KCE190051 <= 16
_C62: release_line3_KCE190051 >= 16
_C63: nan compDate_line1_KCE190051 + nan compDate_line2_KCE190051
 + nan compDate_line3_KCE190051 <= nan
_C64: nan compDate_line1_KCE190051 + nan compDate_line2_KCE190051
 + nan compDate_line3_KCE190051 >= nan
_C65: compDate_line1_KCE190116 + release_line1_KCE190116 <= 20
_C66: release_line1_KCE190116 >= 20
_C67: compDate_line2_KCE190116 + release_line2_KCE190116 <= 20
_C68: release_line2_KCE190116 >= 20
_C69: compDate_line3_KCE190116 + release_line3_KCE190116 <= 20
_C7: nan compDate_line1_KCE180816 + nan compDate_line2_KCE180816
 + nan compDate_line3_KCE180816 <= nan
_C70: release_line3_KCE190116 >= 20
_C71: nan compDate_line1_KCE190116 + nan compDate_line2_KCE190116
 + nan compDate_line3_KCE190116 <= nan
_C72: nan compDate_line1_KCE190116 + nan compDate_line2_KCE190116
 + nan compDate_line3_KCE190116 >= nan
_C73: compDate_line1_KCE181087 + release_line1_KCE181087 <= 0
_C74: release_line1_KCE181087 >= 0
_C75: compDate_line2_KCE181087 + release_line2_KCE181087 <= 0
_C76: release_line2_KCE181087 >= 0
_C77: compDate_line3_KCE181087 + release_line3_KCE181087 <= 0
_C78: release_line3_KCE181087 >= 0
_C79: nan compDate_line1_KCE181087 + nan compDate_line2_KCE181087
 + nan compDate_line3_KCE181087 <= nan
_C8: nan compDate_line1_KCE180816 + nan compDate_line2_KCE180816
 + nan compDate_line3_KCE180816 >= nan
_C80: nan compDate_line1_KCE181087 + nan compDate_line2_KCE181087
 + nan compDate_line3_KCE181087 >= nan
_C81: compDate_line1_KCE190157 + release_line1_KCE190157 <= 27
_C82: release_line1_KCE190157 >= 27
_C83: compDate_line2_KCE190157 + release_line2_KCE190157 <= 27
_C84: release_line2_KCE190157 >= 27
_C85: compDate_line3_KCE190157 + release_line3_KCE190157 <= 27
_C86: release_line3_KCE190157 >= 27
_C87: nan compDate_line1_KCE190157 + nan compDate_line2_KCE190157
 + nan compDate_line3_KCE190157 <= nan
_C88: nan compDate_line1_KCE190157 + nan compDate_line2_KCE190157
 + nan compDate_line3_KCE190157 >= nan
_C89: compDate_line1_KCE190182 + release_line1_KCE190182 <= 6
_C9: compDate_line1_KCE181058 + release_line1_KCE181058 <= 2
_C90: release_line1_KCE190182 >= 6
_C91: compDate_line2_KCE190182 + release_line2_KCE190182 <= 6
_C92: release_line2_KCE190182 >= 6
_C93: compDate_line3_KCE190182 + release_line3_KCE190182 <= 6
_C94: release_line3_KCE190182 >= 6
_C95: nan compDate_line1_KCE190182 + nan compDate_line2_KCE190182
 + nan compDate_line3_KCE190182 <= nan
_C96: nan compDate_line1_KCE190182 + nan compDate_line2_KCE190182
 + nan compDate_line3_KCE190182 >= nan
_C97: compDate_line1_KCE190180 + release_line1_KCE190180 <= 0
_C98: release_line1_KCE190180 >= 0
_C99: compDate_line2_KCE190180 + release_line2_KCE190180 <= 0
Bounds
__dummy = 0
End
